&bands
    outdir      = './work_Ag/'
    prefix      = 'Ag'
    filband     = 'Ag.band'
    lsym        = .true.
/
